proyfinal/src/viki/013/experimentInOfficeAgust.take6.output/95dd1d84-4ebb-4682-a164-6b63915a1cb0.als.out
Reading from standard input... Use '--help' for help.
============================[ Problem Statistics ]=============================
|                                                                             |
|  Number of variables:         87638                                         |
|  Number of clauses:          161767                                         |
|  Parse time:                   0.03 s                                       |
|                                                                             |
============================[ Search Statistics ]==============================
| Conflicts |          ORIGINAL         |          LEARNT          | Progress |
|           |    Vars  Clauses Literals |    Limit  Clauses Lit/Cl |          |
===============================================================================
|       100 |   63849   110438   275994 |    40493      100     22 | 27.145 % |
|       250 |   63849   110438   275994 |    44543      250     56 | 27.145 % |
|       475 |   63849   110438   275994 |    48997      475     50 | 27.145 % |
|       812 |   63849   110438   275994 |    53897      812     64 | 27.145 % |
|      1318 |   63849   110438   275994 |    59287     1318     67 | 27.145 % |
|      2077 |   63803   110246   275554 |    65215     2075     60 | 27.197 % |
|      3216 |   53511    79817   200876 |    71737     3184     63 | 38.941 % |
|      4924 |   53227    78665   198073 |    78911     4875     63 | 39.265 % |
|      7486 |   53146    78524   197727 |    86802     7428     60 | 39.357 % |
|     11330 |   52936    77589   195442 |    95482     9209     59 | 39.597 % |
|     17096 |   52886    77440   195118 |   105030    14391     61 | 39.654 % |
===============================================================================
restarts              : 63
conflicts             : 17904          (7855 /sec)
decisions             : 67812          (0.00 % random) (29751 /sec)
propagations          : 28161668       (12355370 /sec)
conflict literals     : 1102561        (48.21 % deleted)
Memory used           : 31.81 MB
CPU time              : 2.27931 s

INDETERMINATE
